
Gurobi 11.0.1 (win64) logging started Mon May 13 14:56:32 2024

Set parameter LogFile to value "output/solver_log13.txt"
Gurobi Optimizer version 11.0.1 build v11.0.1rc0 (win64 - Windows 11.0 (22631.2))

CPU model: 11th Gen Intel(R) Core(TM) i7-1165G7 @ 2.80GHz, instruction set [SSE2|AVX|AVX2|AVX512]
Thread count: 4 physical cores, 8 logical processors, using up to 8 threads

Optimize a model with 1380 rows, 523 columns and 25265 nonzeros
Model fingerprint: 0xb47e1b11
Variable types: 88 continuous, 435 integer (435 binary)
Coefficient statistics:
  Matrix range     [4e-01, 1e+05]
  Objective range  [1e+00, 1e+02]
  Bounds range     [1e+00, 1e+00]
  RHS range        [1e-02, 1e+05]

User MIP start produced solution with objective 57159.3 (0.00s)
User MIP start produced solution with objective 57159.3 (0.00s)
Loaded user MIP start with objective 57159.3

Presolve removed 230 rows and 234 columns
Presolve time: 0.02s
Presolved: 1150 rows, 289 columns, 23294 nonzeros
Variable types: 83 continuous, 206 integer (205 binary)

Root relaxation: objective 5.803650e+04, 423 iterations, 0.02 seconds (0.03 work units)

    Nodes    |    Current Node    |     Objective Bounds      |     Work
 Expl Unexpl |  Obj  Depth IntInf | Incumbent    BestBd   Gap | It/Node Time

     0     0 58036.5010    0   35 57159.2633 58036.5010  1.53%     -    0s
     0     0 58036.5010    0   34 57159.2633 58036.5010  1.53%     -    0s
     0     2 58036.5010    0   33 57159.2633 58036.5010  1.53%     -    0s
  1630  1125 57976.5010   30   42 57159.2633 58036.5010  1.53%  98.4    5s
  3873  1539 57691.6394   37   25 57159.2633 58036.5010  1.53%  94.4   10s
  6310  2840 57386.0045   77   19 57159.2633 58036.5010  1.53%  87.7   15s
  7509  3256 57811.0992   43   47 57159.2633 58036.5010  1.53%  83.4   20s
 10501  4785 57187.4501   66   22 57159.2633 58036.5010  1.53%  81.0   25s
 11803  5070 57809.7231   48   40 57159.2633 58036.5010  1.53%  79.7   30s
 13560  6225 57611.4173   57   45 57159.2633 58036.5010  1.53%  78.7   35s
 17551  8034 infeasible   71      57159.2633 58036.5010  1.53%  76.6   40s
 21399  9310 58036.5010   60   36 57159.2633 58036.5010  1.53%  74.7   50s
 21404 10833 58036.5010   61   39 57159.2633 58036.5010  1.53%  74.7   56s
 27013 11437 infeasible   67      57159.2633 58036.5010  1.53%  73.3   60s

Cutting planes:
  Inf proof: 4

Explored 27344 nodes (2007997 simplex iterations) in 60.01 seconds (171.11 work units)
Thread count was 8 (of 8 available processors)

Solution count 2: 57159.3 57159.3 

Time limit reached
Best objective 5.715926325593e+04, best bound 5.803650098129e+04, gap 1.5347%
